p edge 150 1118
e 1 18
e 1 23
e 1 25
e 1 26
e 1 31
e 1 33
e 1 41
e 1 51
e 1 63
e 1 64
e 1 98
e 1 102
e 1 107
e 1 114
e 1 124
e 1 146
e 2 13
e 2 18
e 2 21
e 2 31
e 2 36
e 2 66
e 2 104
e 2 106
e 2 128
e 2 139
e 2 146
e 3 4
e 3 21
e 3 27
e 3 30
e 3 46
e 3 73
e 3 118
e 3 123
e 3 124
e 3 125
e 3 139
e 4 41
e 4 83
e 4 85
e 4 99
e 4 110
e 4 117
e 4 129
e 4 133
e 4 150
e 5 21
e 5 24
e 5 34
e 5 54
e 5 55
e 5 60
e 5 84
e 5 89
e 5 96
e 5 134
e 5 140
e 6 13
e 6 14
e 6 18
e 6 21
e 6 27
e 6 32
e 6 38
e 6 53
e 6 60
e 6 61
e 6 63
e 6 69
e 6 71
e 6 100
e 6 101
e 6 111
e 6 120
e 6 123
e 6 128
e 6 129
e 6 130
e 6 135
e 7 32
e 7 54
e 7 73
e 7 111
e 7 112
e 7 119
e 7 128
e 7 129
e 7 132
e 7 134
e 8 16
e 8 63
e 8 65
e 8 68
e 8 72
e 8 98
e 8 103
e 8 110
e 8 123
e 8 129
e 8 130
e 8 140
e 8 150
e 9 12
e 9 20
e 9 24
e 9 34
e 9 35
e 9 41
e 9 42
e 9 46
e 9 56
e 9 74
e 9 111
e 9 120
e 9 129
e 9 130
e 9 133
e 10 18
e 10 34
e 10 66
e 10 74
e 10 89
e 10 114
e 10 122
e 10 123
e 10 142
e 10 150
e 11 15
e 11 22
e 11 29
e 11 35
e 11 52
e 11 91
e 11 96
e 11 106
e 11 107
e 11 113
e 11 122
e 11 124
e 11 131
e 12 15
e 12 17
e 12 25
e 12 43
e 12 45
e 12 55
e 12 61
e 12 66
e 12 74
e 12 80
e 12 87
e 12 105
e 12 109
e 12 121
e 12 131
e 13 23
e 13 53
e 13 61
e 13 62
e 13 68
e 13 74
e 13 77
e 13 80
e 13 86
e 13 97
e 13 105
e 13 120
e 13 122
e 13 149
e 14 20
e 14 43
e 14 49
e 14 56
e 14 61
e 14 66
e 14 74
e 14 78
e 14 83
e 14 98
e 14 101
e 14 105
e 14 112
e 14 118
e 14 127
e 14 131
e 15 34
e 15 44
e 15 50
e 15 54
e 15 56
e 15 60
e 15 62
e 15 67
e 15 75
e 15 78
e 15 84
e 15 94
e 15 105
e 15 111
e 15 120
e 15 124
e 15 131
e 15 137
e 16 19
e 16 32
e 16 34
e 16 68
e 16 73
e 16 80
e 16 129
e 16 131
e 17 18
e 17 38
e 17 39
e 17 43
e 17 47
e 17 50
e 17 52
e 17 58
e 17 76
e 17 118
e 17 124
e 17 129
e 17 130
e 17 135
e 17 141
e 18 45
e 18 46
e 18 51
e 18 52
e 18 59
e 18 61
e 18 68
e 18 73
e 18 78
e 18 83
e 18 84
e 18 98
e 18 101
e 18 106
e 18 113
e 18 133
e 18 136
e 18 143
e 18 144
e 18 149
e 19 29
e 19 30
e 19 45
e 19 57
e 19 63
e 19 73
e 19 78
e 19 82
e 19 83
e 19 84
e 19 87
e 19 105
e 19 107
e 19 116
e 19 118
e 19 124
e 19 127
e 19 130
e 19 135
e 20 23
e 20 28
e 20 32
e 20 33
e 20 36
e 20 47
e 20 51
e 20 52
e 20 55
e 20 61
e 20 65
e 20 66
e 20 69
e 20 93
e 20 106
e 20 108
e 20 119
e 20 120
e 20 127
e 21 29
e 21 38
e 21 49
e 21 52
e 21 54
e 21 55
e 21 61
e 21 71
e 21 73
e 21 76
e 21 81
e 21 90
e 21 118
e 21 127
e 21 131
e 21 133
e 21 136
e 21 143
e 22 25
e 22 26
e 22 32
e 22 46
e 22 53
e 22 69
e 22 70
e 22 75
e 22 77
e 22 80
e 22 102
e 22 111
e 22 112
e 22 122
e 22 126
e 22 129
e 22 144
e 23 24
e 23 33
e 23 38
e 23 42
e 23 60
e 23 64
e 23 67
e 23 74
e 23 75
e 23 102
e 23 103
e 23 111
e 23 122
e 23 135
e 23 140
e 24 28
e 24 33
e 24 34
e 24 43
e 24 45
e 24 52
e 24 66
e 24 73
e 24 78
e 24 98
e 24 107
e 24 111
e 24 116
e 24 118
e 25 26
e 25 44
e 25 46
e 25 48
e 25 67
e 25 75
e 25 100
e 25 108
e 25 112
e 25 113
e 25 121
e 25 123
e 25 127
e 25 131
e 25 132
e 25 133
e 26 45
e 26 69
e 26 77
e 26 103
e 26 124
e 26 132
e 26 133
e 26 139
e 26 146
e 26 150
e 27 44
e 27 46
e 27 49
e 27 60
e 27 78
e 27 85
e 27 95
e 27 100
e 27 107
e 27 121
e 27 130
e 27 138
e 27 146
e 28 36
e 28 37
e 28 40
e 28 48
e 28 49
e 28 57
e 28 58
e 28 64
e 28 79
e 28 83
e 28 84
e 28 97
e 28 100
e 28 104
e 28 129
e 28 130
e 28 140
e 29 38
e 29 55
e 29 66
e 29 76
e 29 88
e 29 94
e 29 109
e 29 111
e 29 112
e 29 114
e 29 123
e 29 127
e 29 129
e 30 38
e 30 60
e 30 64
e 30 95
e 30 107
e 30 111
e 30 115
e 31 35
e 31 54
e 31 72
e 31 115
e 31 118
e 31 120
e 31 136
e 31 142
e 31 148
e 32 38
e 32 56
e 32 58
e 32 65
e 32 76
e 32 82
e 32 84
e 32 88
e 32 91
e 32 95
e 32 96
e 32 97
e 32 104
e 33 42
e 33 51
e 33 61
e 33 62
e 33 72
e 33 79
e 33 94
e 33 106
e 33 129
e 33 132
e 33 133
e 33 136
e 33 143
e 34 54
e 34 76
e 34 83
e 34 90
e 34 106
e 34 131
e 34 135
e 34 138
e 34 144
e 34 150
e 35 36
e 35 37
e 35 70
e 35 80
e 35 81
e 35 99
e 35 108
e 35 112
e 35 129
e 35 133
e 35 134
e 36 38
e 36 44
e 36 45
e 36 66
e 36 73
e 36 83
e 36 102
e 36 120
e 36 123
e 36 135
e 36 145
e 36 150
e 37 42
e 37 44
e 37 51
e 37 72
e 37 92
e 37 97
e 37 118
e 37 121
e 37 128
e 37 137
e 38 43
e 38 57
e 38 71
e 38 80
e 38 81
e 38 91
e 38 101
e 38 112
e 38 118
e 38 130
e 38 131
e 38 132
e 38 142
e 39 41
e 39 64
e 39 66
e 39 84
e 39 86
e 39 94
e 39 96
e 39 97
e 39 100
e 39 102
e 39 106
e 39 113
e 39 123
e 39 138
e 39 143
e 40 49
e 40 80
e 40 101
e 40 105
e 40 115
e 40 132
e 41 43
e 41 46
e 41 61
e 41 70
e 41 83
e 41 89
e 41 90
e 41 96
e 41 103
e 41 111
e 41 113
e 41 120
e 41 127
e 41 128
e 41 139
e 41 146
e 42 43
e 42 51
e 42 62
e 42 67
e 42 94
e 42 96
e 42 102
e 42 106
e 42 107
e 42 120
e 42 122
e 42 125
e 42 134
e 42 138
e 43 53
e 43 58
e 43 82
e 43 101
e 43 119
e 44 79
e 44 108
e 44 109
e 44 111
e 44 118
e 44 142
e 44 145
e 45 46
e 45 50
e 45 52
e 45 109
e 45 110
e 45 117
e 45 119
e 45 128
e 45 144
e 45 147
e 45 149
e 46 68
e 46 69
e 46 94
e 46 111
e 46 119
e 46 145
e 47 60
e 47 68
e 47 73
e 47 88
e 47 103
e 47 107
e 47 123
e 47 146
e 48 59
e 48 60
e 48 70
e 48 73
e 48 77
e 48 79
e 48 93
e 48 100
e 48 102
e 48 124
e 48 128
e 48 130
e 48 137
e 48 147
e 49 73
e 49 81
e 49 90
e 49 95
e 49 121
e 49 123
e 50 62
e 50 65
e 50 70
e 50 80
e 50 89
e 50 112
e 50 114
e 50 120
e 50 126
e 50 146
e 51 57
e 51 66
e 51 94
e 51 97
e 51 109
e 51 110
e 51 117
e 51 121
e 51 141
e 52 59
e 52 92
e 52 95
e 52 98
e 52 102
e 52 114
e 52 126
e 52 143
e 52 144
e 53 54
e 53 59
e 53 65
e 53 80
e 53 83
e 53 85
e 53 87
e 53 100
e 53 102
e 53 105
e 53 116
e 53 118
e 53 127
e 53 139
e 53 146
e 54 61
e 54 89
e 54 99
e 54 100
e 54 102
e 54 108
e 54 120
e 55 62
e 55 74
e 55 84
e 55 88
e 55 108
e 55 114
e 55 123
e 55 124
e 55 127
e 55 139
e 56 61
e 56 67
e 56 70
e 56 76
e 56 87
e 56 100
e 56 108
e 56 112
e 56 120
e 56 122
e 56 140
e 57 86
e 57 92
e 57 96
e 57 120
e 57 125
e 57 129
e 57 150
e 58 77
e 58 93
e 58 123
e 58 127
e 59 79
e 59 86
e 59 91
e 59 102
e 59 104
e 59 108
e 59 134
e 59 138
e 59 139
e 59 150
e 60 87
e 60 89
e 60 99
e 60 111
e 60 124
e 60 147
e 61 78
e 61 81
e 61 119
e 61 122
e 61 126
e 61 136
e 61 149
e 62 78
e 62 82
e 62 102
e 62 109
e 62 110
e 62 111
e 62 114
e 62 119
e 62 140
e 62 146
e 63 65
e 63 71
e 63 73
e 63 82
e 63 84
e 63 92
e 63 98
e 63 114
e 63 116
e 63 136
e 64 80
e 64 87
e 64 102
e 64 120
e 64 127
e 64 138
e 64 139
e 65 88
e 65 103
e 65 105
e 65 123
e 65 137
e 66 75
e 66 83
e 66 90
e 66 106
e 66 118
e 66 123
e 66 130
e 66 136
e 66 139
e 67 81
e 67 97
e 68 75
e 68 76
e 68 103
e 68 104
e 68 106
e 68 110
e 68 117
e 68 141
e 69 72
e 69 75
e 69 79
e 69 107
e 69 113
e 69 115
e 69 116
e 69 119
e 70 80
e 70 81
e 70 96
e 70 100
e 70 120
e 70 132
e 70 144
e 71 75
e 71 76
e 71 77
e 71 93
e 71 100
e 71 102
e 71 113
e 71 118
e 71 127
e 71 132
e 71 140
e 72 80
e 72 93
e 72 95
e 72 101
e 72 104
e 72 108
e 72 110
e 72 114
e 72 120
e 72 125
e 72 127
e 72 136
e 73 89
e 73 92
e 73 110
e 73 113
e 73 115
e 73 137
e 73 142
e 73 143
e 74 84
e 74 85
e 74 89
e 74 90
e 74 119
e 74 126
e 74 143
e 75 83
e 75 86
e 75 96
e 75 103
e 75 104
e 75 106
e 75 141
e 75 145
e 76 85
e 76 93
e 76 96
e 76 129
e 77 102
e 77 125
e 77 126
e 77 129
e 77 145
e 78 81
e 78 94
e 78 105
e 78 108
e 78 110
e 78 111
e 78 112
e 78 124
e 78 127
e 78 137
e 78 142
e 79 128
e 79 137
e 79 143
e 79 146
e 80 81
e 80 86
e 80 87
e 80 90
e 80 100
e 80 101
e 80 103
e 80 111
e 80 113
e 80 123
e 80 126
e 80 132
e 80 135
e 81 85
e 81 91
e 81 102
e 81 103
e 81 119
e 81 125
e 81 127
e 82 85
e 82 91
e 82 96
e 82 97
e 82 113
e 82 128
e 82 130
e 82 133
e 82 135
e 82 136
e 83 99
e 83 112
e 83 131
e 83 134
e 83 135
e 83 141
e 83 146
e 84 94
e 84 99
e 84 130
e 84 138
e 84 140
e 84 142
e 85 98
e 85 105
e 85 113
e 85 132
e 85 133
e 86 133
e 86 136
e 87 96
e 87 103
e 87 140
e 87 144
e 87 150
e 88 112
e 88 115
e 88 133
e 88 134
e 88 149
e 89 101
e 89 134
e 89 142
e 89 149
e 90 110
e 90 113
e 90 117
e 90 125
e 90 127
e 90 136
e 91 96
e 91 98
e 91 104
e 91 105
e 91 111
e 91 119
e 91 130
e 92 116
e 92 129
e 92 131
e 92 147
e 93 96
e 93 99
e 93 107
e 93 110
e 93 117
e 93 119
e 93 130
e 94 97
e 94 109
e 94 119
e 94 121
e 94 141
e 94 143
e 94 145
e 94 150
e 95 101
e 95 105
e 95 107
e 95 117
e 95 127
e 95 129
e 95 142
e 95 148
e 95 150
e 96 100
e 96 104
e 96 106
e 96 113
e 96 129
e 97 115
e 97 121
e 97 126
e 97 148
e 98 114
e 99 123
e 99 136
e 99 139
e 99 142
e 99 150
e 100 105
e 100 106
e 100 108
e 100 127
e 101 110
e 101 117
e 101 120
e 101 126
e 101 146
e 102 118
e 102 119
e 102 121
e 103 106
e 103 134
e 104 111
e 104 125
e 104 149
e 105 107
e 105 109
e 105 112
e 105 124
e 105 128
e 105 131
e 105 134
e 105 143
e 106 108
e 106 109
e 106 117
e 106 119
e 106 127
e 106 128
e 106 138
e 107 122
e 107 148
e 108 115
e 108 121
e 108 123
e 108 125
e 108 128
e 108 134
e 108 139
e 108 140
e 108 149
e 109 114
e 110 122
e 110 128
e 110 139
e 111 124
e 111 133
e 111 148
e 112 117
e 112 120
e 112 143
e 113 115
e 113 121
e 113 123
e 113 137
e 113 144
e 114 116
e 114 124
e 114 128
e 114 135
e 115 125
e 115 138
e 116 122
e 116 131
e 116 132
e 116 133
e 116 136
e 116 143
e 116 148
e 117 122
e 117 124
e 117 140
e 117 143
e 117 145
e 118 132
e 118 140
e 118 146
e 119 128
e 119 129
e 119 145
e 119 148
e 120 121
e 120 136
e 120 138
e 121 122
e 121 141
e 121 148
e 122 126
e 122 132
e 122 133
e 122 135
e 122 140
e 123 126
e 123 129
e 123 130
e 123 132
e 123 133
e 123 144
e 123 149
e 124 127
e 124 145
e 125 139
e 126 138
e 127 128
e 127 133
e 127 149
e 128 140
e 128 142
e 128 146
e 128 147
e 129 137
e 130 140
e 130 142
e 131 149
e 132 142
e 133 137
e 133 147
e 134 142
e 135 137
e 135 141
e 135 143
e 136 148
e 136 150
e 138 141
e 138 144
e 142 144
e 142 146
e 142 148
e 145 147
e 147 149
e 147 150
